0000000000000000
0001110000110000
0001110000110000
0000111000110000
0000111000110000
0000111101110000
0000111101110000
0001111111100000
0001110111100000
0001110111000000
0001110111000000
0001110011100000
0001110001110000
0001110001110000
0000000000000000
0000000000000000
